words_train/words_299_SAT.qaiger
aag 47 16 0 1 31
32
16
8
22
20
12
26
30
6
4
18
10
28
2
14
24
95
34 22 7
36 24 9
38 30 14
40 31 15
42 41 39
44 43 37
46 44 35
48 18 2
50 28 13
52 51 49
54 52 46
56 23 6
58 25 8
60 59 57
62 33 16
64 32 17
66 65 63
68 20 5
70 21 4
72 71 69
74 73 66
76 74 60
78 26 11
80 27 10
82 19 3
84 83 81
86 84 79
88 29 12
90 89 86
92 90 76
94 92 54
i0 1 x[7]
i1 2 y[7]
i2 2 y[3]
i3 1 x[2]
i4 1 x[1]
i5 2 y[5]
i6 1 x[4]
i7 1 x[6]
i8 2 y[2]
i9 2 y[1]
i10 1 x[0]
i11 2 y[4]
i12 1 x[5]
i13 2 y[0]
i14 2 y[6]
i15 1 x[3]
o0 bool[0]
c
simplified
  !=
    xor
      2 y
      1 x
    add
      1
      add
        1
        1
