words_train/words_299_SAT.qaiger.qdimacs
p cnf 47 94
a 9 10 11 12 13 14 15 16 0
e 1 2 3 4 5 6 7 8 17 18 19 20 21 22 23 24 25 26 27 28 29 30 31 32 33 34 35 36 37 38 39 40 41 42 43 44 45 46 47 0
-11 3 17 0
11 -17 0
-3 -17 0
-12 4 18 0
12 -18 0
-4 -18 0
-15 -7 19 0
15 -19 0
7 -19 0
15 7 20 0
-15 -20 0
-7 -20 0
20 19 21 0
-20 -21 0
-19 -21 0
21 18 22 0
-21 -22 0
-18 -22 0
-22 17 23 0
22 -23 0
-17 -23 0
-9 -1 24 0
9 -24 0
1 -24 0
-14 6 25 0
14 -25 0
-6 -25 0
25 24 26 0
-25 -26 0
-24 -26 0
-26 -23 27 0
26 -27 0
23 -27 0
11 -3 28 0
-11 -28 0
3 -28 0
12 -4 29 0
-12 -29 0
4 -29 0
29 28 30 0
-29 -30 0
-28 -30 0
16 -8 31 0
-16 -31 0
8 -31 0
-16 8 32 0
16 -32 0
-8 -32 0
32 31 33 0
-32 -33 0
-31 -33 0
-10 2 34 0
10 -34 0
-2 -34 0
10 -2 35 0
-10 -35 0
2 -35 0
35 34 36 0
-35 -36 0
-34 -36 0
36 -33 37 0
-36 -37 0
33 -37 0
-37 -30 38 0
37 -38 0
30 -38 0
-13 5 39 0
13 -39 0
-5 -39 0
13 -5 40 0
-13 -40 0
5 -40 0
9 1 41 0
-9 -41 0
-1 -41 0
41 40 42 0
-41 -42 0
-40 -42 0
-42 39 43 0
42 -43 0
-39 -43 0
14 -6 44 0
-14 -44 0
6 -44 0
44 -43 45 0
-44 -45 0
43 -45 0
-45 -38 46 0
45 -46 0
38 -46 0
-46 -27 47 0
46 -47 0
27 -47 0
-47 0
